(set-logic ALL)
(set-option :produce-models true)
(declare-sort BoundSet 0)
(declare-sort UnboundSet 0)
(declare-fun IsSmall (BoundSet) Bool)
(declare-fun HasShortBrownHair (BoundSet) Bool)
(declare-fun IsPushing (BoundSet BoundSet) Bool)
(declare-fun IsPink (BoundSet) Bool)
(declare-fun IsOver (BoundSet BoundSet) Bool)
(declare-fun HasBrownLeaves (BoundSet) Bool)
(declare-fun IsInBackground (BoundSet BoundSet) Bool)
(declare-fun IsOutside (BoundSet) Bool)
(assert (not (=> (and (exists ((e BoundSet)) (exists ((d BoundSet)) (exists ((g BoundSet)) (exists ((a BoundSet)) (exists ((f BoundSet)) (exists ((c BoundSet)) (and (IsSmall a) (and (HasShortBrownHair a) (and (IsPushing a c) (and (IsPink c) (and (IsOver c d) (and (HasBrownLeaves e) (IsInBackground g f))))))))))))) (and (forall ((i BoundSet)) (forall ((j BoundSet)) (=> (IsSmall i) (IsOutside j)))) (and (forall ((k BoundSet)) (forall ((l BoundSet)) (=> (IsOutside k) (IsSmall l)))) (and (forall ((n BoundSet)) (forall ((m BoundSet)) (=> (HasShortBrownHair m) (IsOutside n)))) (forall ((p BoundSet)) (forall ((o BoundSet)) (=> (IsOutside o) (HasShortBrownHair p)))))))) (exists ((h BoundSet)) (IsOutside h)))))
(check-sat)
(get-model)